DIMENSION: 70
48
53
5
10
52
60
12
21
34
33
54
62
39
45
25
61
40
46
27
9
17
43
68
44
30
20
14
3
32
28
8
49
55
26
7
42
41
6
18
4
2
19
24
15
57
66
63
22
59
38
35
70
69
31
13
29
23
36
1
16
47
58
37
50
64
65
51
56
11
67
